% seed = 0

mint = 25;
% maxt = 127;

nActs = 62;
dur = [0,1,1,2,1,1,3,1,2,3,3,5,2,2,1,3,2,4,1,6,1,2,2,5,2,3,4,2,2,1,1,2,3,3,1,2,2,1,2,2,5,1,3,2,2,2,2,2,2,2,1,1,2,2,2,2,2,2,1,1,1,0];

nSkills = 12;
sreq = [| 0,0,0,0,0,0,0,0,0,0,0,0,
	| 0,0,1,0,0,0,0,1,1,1,1,0,
	| 0,0,0,0,0,0,0,0,3,1,0,0,
	| 0,0,1,0,0,1,0,0,2,0,1,0,
	| 0,0,0,0,0,3,0,1,0,0,0,0,
	| 0,0,0,0,0,0,0,0,3,0,0,0,
	| 0,1,2,0,0,1,0,0,1,0,0,0,
	| 0,0,1,0,0,1,0,0,2,0,0,0,
	| 1,0,0,1,0,1,0,0,0,0,0,0,
	| 0,0,2,0,0,0,0,0,0,0,1,0,
	| 0,1,0,0,0,2,0,0,0,1,0,0,
	| 0,1,1,0,0,0,0,0,0,0,1,0,
	| 0,0,1,0,0,0,0,0,0,0,0,0,
	| 0,0,0,1,0,0,0,0,0,0,0,0,
	| 0,0,0,0,0,1,0,0,2,1,0,0,
	| 0,0,1,0,0,1,0,0,0,0,0,1,
	| 0,0,1,0,0,0,0,0,2,0,0,0,
	| 0,1,1,0,0,0,0,1,1,0,1,0,
	| 0,0,0,0,0,0,0,0,1,0,2,0,
	| 0,0,0,0,1,1,0,0,0,0,0,0,
	| 0,0,0,0,1,0,0,0,1,0,0,0,
	| 0,0,2,0,0,0,0,0,3,0,0,0,
	| 0,0,1,0,0,0,0,1,0,0,3,0,
	| 0,0,2,0,0,0,0,0,2,0,0,0,
	| 0,1,1,0,0,1,0,0,1,0,0,0,
	| 0,0,0,0,0,0,0,0,0,0,1,0,
	| 0,0,1,0,0,1,0,1,0,0,1,0,
	| 0,1,2,0,0,1,0,0,2,0,0,0,
	| 0,0,0,0,0,0,0,0,3,0,0,0,
	| 0,0,0,0,0,1,0,0,0,0,0,0,
	| 0,1,0,0,0,0,0,1,0,0,1,0,
	| 0,0,1,0,1,0,0,0,1,0,0,0,
	| 0,0,1,1,0,0,0,0,0,0,1,0,
	| 0,0,2,0,0,1,1,0,1,0,1,0,
	| 0,0,0,0,0,0,0,0,1,0,0,0,
	| 0,0,1,0,1,0,0,0,0,0,0,0,
	| 0,0,1,0,1,1,1,0,0,0,1,0,
	| 0,0,2,0,0,2,0,1,0,0,0,0,
	| 0,0,0,0,0,1,0,0,1,0,0,0,
	| 0,1,1,0,0,0,1,0,1,0,0,0,
	| 0,0,1,1,0,0,0,0,0,0,2,0,
	| 0,1,0,0,0,0,0,0,0,0,0,0,
	| 0,1,1,0,0,1,1,0,1,0,0,0,
	| 0,1,0,0,0,0,0,0,0,0,0,0,
	| 0,0,2,0,0,0,0,1,0,0,0,0,
	| 0,0,1,0,0,0,1,1,1,0,0,0,
	| 0,0,1,0,0,1,0,0,1,0,0,0,
	| 0,0,0,0,0,0,0,0,1,0,0,0,
	| 0,0,0,0,0,0,0,0,0,1,0,0,
	| 0,0,3,0,0,1,0,0,1,0,1,0,
	| 0,0,1,0,0,0,0,0,0,0,0,0,
	| 0,1,1,0,0,0,0,0,1,0,2,0,
	| 0,0,1,0,0,1,0,0,1,0,2,0,
	| 0,1,1,0,1,1,1,0,0,0,1,0,
	| 0,0,0,0,0,0,0,1,0,0,0,0,
	| 0,0,1,0,1,0,0,0,0,0,0,0,
	| 0,0,1,1,0,0,0,0,0,0,1,0,
	| 0,0,2,0,0,0,0,0,1,0,1,0,
	| 0,0,1,0,0,0,0,0,0,0,0,0,
	| 0,1,0,0,0,1,1,0,2,0,1,0,
	| 0,0,2,1,0,0,0,0,1,0,2,0,
	| 0,0,0,0,0,0,0,0,0,0,0,0, |];

% SumOfsreq = 203;

nResources = 18;
mastery = [| false,false,false,false,false,false,true,true,true,false,false,false,
	| false,false,false,false,false,false,false,false,false,false,true,true,
	| false,false,false,false,false,true,false,true,true,false,false,false,
	| false,true,true,false,false,false,false,false,false,false,false,false,
	| false,false,false,false,false,false,false,false,true,false,false,false,
	| false,true,true,false,false,false,false,false,false,false,false,false,
	| false,false,true,false,false,false,false,false,false,false,false,false,
	| false,false,false,false,false,true,false,false,false,false,false,false,
	| false,false,false,true,true,true,false,false,false,false,false,false,
	| false,false,false,false,false,false,false,false,false,false,true,true,
	| false,false,false,false,true,true,false,true,true,false,false,false,
	| false,false,false,false,false,false,false,false,true,false,false,false,
	| false,false,true,false,false,false,false,false,false,false,false,true,
	| false,false,false,false,false,false,true,true,true,true,true,true,
	| false,true,true,true,true,true,false,false,false,false,false,false,
	| true,true,true,false,false,false,false,false,false,true,true,true,
	| false,false,false,false,false,false,false,false,true,false,false,false,
	| false,false,false,false,false,false,false,false,true,false,false,false, |];

nPrecs = 112;
pred = [1,1,1,2,2,2,3,3,3,4,4,4,5,5,5,6,6,7,7,7,8,9,9,10,11,12,12,12,13,13,14,14,14,15,15,15,16,17,17,17,18,18,18,19,19,20,20,21,21,21,22,23,24,25,25,25,26,26,26,27,27,28,29,30,30,30,31,32,32,32,33,33,34,34,34,35,35,36,36,37,38,39,40,40,41,41,42,43,43,44,45,45,45,46,47,48,49,50,50,51,51,52,53,54,55,56,56,57,58,59,60,61];
succ = [2,3,4,41,11,5,13,6,14,27,35,7,9,17,34,10,24,18,44,8,30,42,20,12,47,25,19,20,29,54,36,15,16,37,22,23,49,26,28,21,26,53,32,53,37,58,35,42,43,39,56,27,31,42,52,47,45,37,40,51,40,29,38,57,34,46,33,41,34,50,41,47,38,39,56,57,38,44,45,48,59,60,52,48,46,55,56,58,46,54,49,50,55,48,51,49,54,59,52,53,55,57,58,61,59,60,61,61,60,62,62,62];

nUnrels = 1160;
unpred = [2,2,2,2,2,2,2,2,2,2,2,2,2,2,2,2,2,2,2,2,2,2,2,2,3,3,3,3,3,3,3,3,3,3,3,3,3,3,3,3,4,4,4,4,4,4,4,4,4,4,4,4,4,4,4,4,4,4,4,4,4,4,4,4,4,4,5,5,5,5,5,5,5,5,5,5,5,5,5,5,5,5,5,5,5,5,5,5,5,5,5,5,5,6,6,6,6,6,6,6,6,6,6,6,6,6,6,6,6,6,6,6,6,6,6,6,6,6,6,6,7,7,7,7,7,7,7,7,7,7,7,7,7,7,7,7,7,7,7,7,7,7,7,7,7,7,7,8,8,8,8,8,8,8,8,8,8,8,8,8,8,8,8,8,8,8,8,8,8,8,8,8,8,8,8,8,8,8,8,8,8,8,8,8,8,8,8,9,9,9,9,9,9,9,9,9,9,9,9,9,9,9,9,9,9,9,9,9,9,9,9,9,9,9,9,9,9,9,9,9,9,9,9,9,9,9,9,9,9,10,10,10,10,10,10,10,10,10,10,10,10,10,10,10,10,10,10,10,10,10,10,10,10,10,10,10,10,10,11,11,11,11,11,11,11,11,11,11,11,11,11,11,11,11,11,11,11,11,11,11,11,11,11,11,11,11,11,11,11,11,11,11,11,11,11,11,11,11,11,11,11,12,12,12,12,12,12,12,12,12,12,12,12,12,12,12,12,12,12,12,12,12,12,12,12,12,12,12,12,13,13,13,13,13,13,13,13,13,13,13,13,13,13,13,13,13,13,13,13,13,13,13,13,13,13,13,13,13,13,13,13,13,13,13,13,13,13,13,13,13,13,13,14,14,14,14,14,14,14,14,14,14,14,14,14,14,14,14,14,14,14,14,14,14,14,15,15,15,15,15,15,15,15,15,15,15,15,15,15,15,15,15,15,15,15,15,15,15,15,15,15,15,15,16,16,16,16,16,16,16,16,16,16,16,16,16,16,16,16,16,16,16,16,16,16,16,16,16,16,16,16,16,16,16,16,16,16,16,16,16,16,16,16,16,16,17,17,17,17,17,17,17,17,17,17,17,17,17,17,17,17,17,17,17,17,18,18,18,18,18,18,18,18,18,18,18,18,18,18,18,18,18,18,18,18,19,19,19,19,19,19,19,19,19,19,19,19,19,19,19,19,19,19,19,19,19,19,19,19,19,19,19,19,19,19,19,19,19,19,20,20,20,20,20,20,20,20,20,20,20,20,20,20,20,20,20,20,20,20,20,20,20,20,20,20,20,20,20,20,20,20,20,20,21,21,21,21,21,21,21,21,21,21,21,21,21,21,21,21,21,21,21,21,21,21,21,21,21,21,21,21,21,22,22,22,22,22,22,22,22,22,22,22,22,22,22,22,22,22,22,22,22,22,22,22,22,22,22,22,22,22,22,22,22,22,22,22,22,23,23,23,23,23,23,23,23,23,23,23,23,23,23,23,23,23,23,23,23,23,23,23,23,24,24,24,24,24,24,24,24,24,24,24,24,24,24,24,24,24,24,24,24,24,24,25,25,25,25,25,25,25,25,25,25,25,25,25,25,25,25,25,25,25,25,25,25,25,25,26,26,26,26,26,26,26,26,26,26,26,26,26,26,26,26,26,26,26,26,26,26,26,27,27,27,27,27,27,27,27,27,27,27,27,27,27,27,27,27,27,27,27,27,28,28,28,28,28,28,28,28,28,28,28,28,28,28,28,28,28,28,28,28,28,28,28,28,28,28,28,28,28,28,29,29,29,29,29,29,29,29,29,29,29,29,29,29,29,29,29,29,29,29,29,29,29,29,29,29,29,29,29,29,30,30,30,30,30,30,30,30,30,30,30,30,30,30,30,30,30,30,30,31,31,31,31,31,31,31,31,31,31,31,31,31,31,31,31,32,32,32,32,32,32,32,32,32,32,32,32,32,33,33,33,33,33,33,33,33,33,33,33,33,33,33,33,34,34,34,34,34,34,34,34,34,34,34,34,34,34,34,34,34,34,34,34,34,35,35,35,35,35,35,35,35,35,35,35,35,35,35,35,35,35,35,35,35,35,35,36,36,36,36,36,36,36,36,36,36,36,36,36,36,36,37,37,37,37,37,37,37,37,37,37,37,37,37,37,37,37,37,37,37,37,38,38,38,38,38,38,38,38,38,38,38,38,38,38,38,38,38,38,38,38,38,38,39,39,39,39,39,39,39,39,39,39,39,39,39,39,39,39,39,39,39,39,39,40,40,40,40,40,40,40,40,40,40,40,40,40,40,40,41,41,41,41,41,41,41,41,41,41,41,41,41,42,42,42,42,42,42,42,42,42,42,42,42,42,42,42,42,43,43,43,43,43,43,43,43,43,43,43,44,44,44,44,44,44,44,44,44,44,44,44,44,44,44,45,45,45,45,45,45,45,45,46,46,46,46,46,46,46,46,46,46,46,47,47,47,47,47,47,47,47,48,48,48,48,48,48,48,48,48,48,49,49,49,49,49,49,49,49,49,49,50,50,50,50,50,50,50,51,51,51,51,51,52,52,52,52,52,52,52,53,53,53,53,53,53,54,54,54,54,54,54,55,55,55,55,55,56,56,56,57,57,57,58,58,59,59,60];
unsucc = [3,4,6,7,8,10,12,13,14,15,16,18,19,22,23,24,25,27,30,31,32,33,36,44,4,5,7,8,9,11,17,18,21,26,28,30,32,34,39,43,5,6,9,10,11,12,13,14,15,16,17,19,20,21,22,23,24,25,28,29,31,33,36,42,43,47,6,7,8,10,11,12,13,14,15,16,18,19,22,23,24,25,27,30,31,32,33,36,41,44,47,51,53,7,8,9,11,13,14,15,16,17,18,21,22,23,26,27,28,29,30,32,34,36,39,40,43,44,45,50,9,10,11,12,13,14,15,16,17,19,20,21,22,23,24,25,27,28,29,31,33,35,36,42,43,47,51,9,10,11,12,13,14,15,16,17,18,19,20,21,22,23,24,25,26,27,28,29,31,32,33,35,36,37,40,41,42,43,44,45,47,50,51,52,53,55,58,10,11,12,13,14,15,16,17,18,19,21,22,23,24,25,26,27,28,29,30,31,32,33,34,36,37,39,40,41,43,44,45,46,47,48,49,50,51,52,53,54,55,11,13,14,15,16,17,18,21,22,23,24,26,27,28,29,30,31,32,33,34,36,39,40,41,43,44,45,46,50,12,13,14,15,16,17,18,19,20,21,22,23,24,25,26,27,28,29,30,31,32,33,34,35,36,37,38,39,40,41,42,43,44,45,46,48,49,50,52,54,56,57,61,13,14,15,16,17,18,21,22,23,24,26,27,28,29,30,31,32,33,34,36,39,40,41,43,44,45,46,50,14,15,16,17,18,19,20,21,22,23,24,25,26,27,28,30,31,32,33,34,35,36,37,39,40,41,42,43,44,45,46,47,48,49,50,51,52,53,55,56,57,58,60,17,18,19,20,21,24,25,26,28,29,30,31,32,33,34,35,38,39,41,42,43,46,47,16,17,18,19,20,21,24,25,26,28,29,30,31,32,33,34,35,36,38,39,41,42,43,44,45,46,47,50,17,18,19,20,21,22,23,24,25,26,27,28,29,30,31,32,33,34,35,36,37,38,39,40,41,42,43,44,45,46,47,48,50,51,52,53,55,56,57,58,59,60,18,19,20,22,23,24,25,27,30,31,32,33,34,35,36,41,44,47,51,53,19,20,21,22,23,24,25,27,28,29,30,31,33,35,36,42,43,44,47,51,20,21,22,23,24,25,26,27,28,29,30,31,32,33,34,35,36,38,39,40,41,42,43,44,45,46,47,50,51,52,55,56,57,59,21,22,23,24,25,26,27,28,29,30,31,32,33,34,36,37,39,40,41,42,43,44,45,46,47,48,49,50,51,52,53,54,55,56,22,23,24,25,26,27,28,29,30,31,32,33,34,35,36,37,38,40,41,44,45,47,50,51,52,53,55,57,59,23,24,25,26,27,28,29,30,31,32,33,34,35,36,37,38,39,40,41,42,43,44,45,46,47,48,49,50,51,52,53,54,55,57,58,59,24,25,26,28,29,30,31,32,33,34,35,36,37,38,39,41,42,43,44,45,46,47,50,56,25,26,27,28,29,30,32,34,35,36,37,38,39,40,42,43,44,45,50,52,56,57,26,27,28,29,30,31,32,33,34,35,36,37,38,39,40,41,43,44,45,46,48,49,50,54,27,28,29,30,31,32,33,34,35,36,38,39,41,42,43,44,46,47,51,53,56,58,60,28,29,30,31,32,33,34,35,36,37,38,39,41,42,43,44,45,46,47,50,56,30,31,32,33,34,35,36,37,39,40,41,42,43,44,45,46,47,48,49,50,51,52,53,54,55,56,57,58,60,61,30,31,32,33,34,35,36,37,39,40,41,42,43,44,45,46,47,48,49,50,51,52,53,54,55,56,57,58,60,61,31,32,33,35,36,37,40,41,42,43,44,45,47,50,51,52,53,55,58,32,34,35,36,37,38,39,40,42,43,44,45,50,52,56,57,33,35,36,37,40,42,43,44,45,47,51,53,58,34,35,36,37,38,39,40,42,43,44,45,50,52,56,57,35,36,37,40,41,42,43,44,45,46,47,48,49,50,51,52,53,54,55,57,58,36,37,39,40,41,42,43,44,45,46,47,48,49,50,51,52,53,54,55,56,58,60,37,38,39,40,41,42,43,46,47,48,51,53,56,58,60,38,39,40,41,42,43,44,45,46,47,50,51,52,53,55,56,57,58,59,60,39,40,41,42,43,44,45,46,47,48,49,50,51,52,53,54,55,56,57,58,60,61,40,41,42,43,44,45,46,47,48,49,50,51,52,53,54,55,56,57,58,59,61,41,42,43,44,45,46,47,50,51,53,55,56,58,59,60,42,43,44,45,47,50,51,52,53,56,57,58,60,43,44,45,46,47,48,49,50,51,52,53,54,55,57,58,59,44,45,47,50,51,52,53,55,56,57,59,45,46,47,48,49,50,51,52,53,55,56,57,58,59,60,46,47,48,51,53,56,58,60,47,50,51,52,53,55,56,57,58,59,60,48,49,50,52,54,56,57,61,50,51,52,53,55,56,57,58,59,60,50,51,52,53,55,56,57,58,59,60,51,53,54,55,56,58,60,52,54,56,57,61,53,54,55,56,58,59,60,54,55,56,57,59,61,55,56,57,58,59,60,56,57,58,60,61,57,58,59,58,59,60,59,61,60,61,61];

USEFUL_RES = [{},
	{1,2,3,4,5,6,7,10,11,12,13,14,15,16,17,18},
	{1,3,5,11,12,14,16,17,18},
	{1,2,3,4,5,6,7,8,9,10,11,12,13,14,15,16,17,18},
	{1,3,8,9,11,14,15},
	{1,3,5,11,12,14,17,18},
	{1,3,4,5,6,7,8,9,11,12,13,14,15,16,17,18},
	{1,3,4,5,6,7,8,9,11,12,13,14,15,16,17,18},
	{3,8,9,11,15,16},
	{2,4,6,7,10,13,14,15,16},
	{3,4,6,8,9,11,14,15,16},
	{2,4,6,7,10,13,14,15,16},
	{4,6,7,13,15,16},
	{9,15},
	{1,3,5,8,9,11,12,14,15,16,17,18},
	{2,3,4,6,7,8,9,10,11,13,14,15,16},
	{1,3,4,5,6,7,11,12,13,14,15,16,17,18},
	{1,2,3,4,5,6,7,10,11,12,13,14,15,16,17,18},
	{1,2,3,5,10,11,12,14,16,17,18},
	{3,8,9,11,15},
	{1,3,5,9,11,12,14,15,17,18},
	{1,3,4,5,6,7,11,12,13,14,15,16,17,18},
	{1,2,3,4,6,7,10,11,13,14,15,16},
	{1,3,4,5,6,7,11,12,13,14,15,16,17,18},
	{1,3,4,5,6,7,8,9,11,12,13,14,15,16,17,18},
	{2,10,14,16},
	{1,2,3,4,6,7,8,9,10,11,13,14,15,16},
	{1,3,4,5,6,7,8,9,11,12,13,14,15,16,17,18},
	{1,3,5,11,12,14,17,18},
	{3,8,9,11,15},
	{1,2,3,4,6,10,11,14,15,16},
	{1,3,4,5,6,7,9,11,12,13,14,15,16,17,18},
	{2,4,6,7,9,10,13,14,15,16},
	{1,2,3,4,5,6,7,8,9,10,11,12,13,14,15,16,17,18},
	{1,3,5,11,12,14,17,18},
	{4,6,7,9,11,13,15,16},
	{1,2,3,4,6,7,8,9,10,11,13,14,15,16},
	{1,3,4,6,7,8,9,11,13,14,15,16},
	{1,3,5,8,9,11,12,14,15,17,18},
	{1,3,4,5,6,7,11,12,13,14,15,16,17,18},
	{2,4,6,7,9,10,13,14,15,16},
	{4,6,15,16},
	{1,3,4,5,6,7,8,9,11,12,13,14,15,16,17,18},
	{4,6,15,16},
	{1,3,4,6,7,11,13,14,15,16},
	{1,3,4,5,6,7,11,12,13,14,15,16,17,18},
	{1,3,4,5,6,7,8,9,11,12,13,14,15,16,17,18},
	{1,3,5,11,12,14,17,18},
	{14,16},
	{1,2,3,4,5,6,7,8,9,10,11,12,13,14,15,16,17,18},
	{4,6,7,13,15,16},
	{1,2,3,4,5,6,7,10,11,12,13,14,15,16,17,18},
	{1,2,3,4,5,6,7,8,9,10,11,12,13,14,15,16,17,18},
	{1,2,3,4,6,7,8,9,10,11,13,14,15,16},
	{1,3,11,14},
	{4,6,7,9,11,13,15,16},
	{2,4,6,7,9,10,13,14,15,16},
	{1,2,3,4,5,6,7,10,11,12,13,14,15,16,17,18},
	{4,6,7,13,15,16},
	{1,2,3,4,5,6,8,9,10,11,12,14,15,16,17,18},
	{1,2,3,4,5,6,7,9,10,11,12,13,14,15,16,17,18},
	{}];

POTENTIAL_ACT = [{2,3,4,5,6,7,8,15,17,18,19,21,22,23,24,25,27,28,29,31,32,34,35,37,38,39,40,43,45,46,47,48,50,52,53,54,55,58,60,61},
	{2,4,10,12,16,18,19,23,26,27,31,33,34,37,41,50,52,53,54,57,58,60,61},
	{2,3,4,5,6,7,8,9,11,15,16,17,18,19,20,21,22,23,24,25,27,28,29,30,31,32,34,35,37,38,39,40,43,45,46,47,48,50,52,53,54,55,58,60,61},
	{2,4,7,8,10,11,12,13,16,17,18,22,23,24,25,27,28,31,32,33,34,36,37,38,40,41,42,43,44,45,46,47,50,51,52,53,54,56,57,58,59,60,61},
	{2,3,4,6,7,8,15,17,18,19,21,22,24,25,28,29,32,34,35,39,40,43,46,47,48,50,52,53,58,60,61},
	{2,4,7,8,10,11,12,13,16,17,18,22,23,24,25,27,28,31,32,33,34,36,37,38,40,41,42,43,44,45,46,47,50,51,52,53,54,56,57,58,59,60,61},
	{2,4,7,8,10,12,13,16,17,18,22,23,24,25,27,28,32,33,34,36,37,38,40,41,43,45,46,47,50,51,52,53,54,56,57,58,59,61},
	{4,5,7,8,9,11,15,16,20,25,27,28,30,34,37,38,39,43,47,50,53,54,60},
	{4,5,7,8,9,11,14,15,16,20,21,25,27,28,30,32,33,34,36,37,38,39,41,43,47,50,53,54,56,57,60,61},
	{2,4,10,12,16,18,19,23,26,27,31,33,34,37,41,50,52,53,54,57,58,60,61},
	{2,3,4,5,6,7,8,9,11,15,16,17,18,19,20,21,22,23,24,25,27,28,29,30,31,32,34,35,36,37,38,39,40,43,45,46,47,48,50,52,53,54,55,56,58,60,61},
	{2,3,4,6,7,8,15,17,18,19,21,22,24,25,28,29,32,34,35,39,40,43,46,47,48,50,52,53,58,60,61},
	{2,4,7,8,10,12,13,16,17,18,22,23,24,25,27,28,32,33,34,36,37,38,40,41,43,45,46,47,50,51,52,53,54,56,57,58,59,61},
	{2,3,4,5,6,7,8,10,11,12,15,16,17,18,19,21,22,23,24,25,26,27,28,29,31,32,33,34,35,37,38,39,40,41,43,45,46,47,48,49,50,52,53,54,55,57,58,60,61},
	{2,4,5,7,8,9,10,11,12,13,14,15,16,17,18,20,21,22,23,24,25,27,28,30,31,32,33,34,36,37,38,39,40,41,42,43,44,45,46,47,50,51,52,53,54,56,57,58,59,60,61},
	{2,3,4,7,8,9,10,11,12,13,15,16,17,18,19,22,23,24,25,26,27,28,31,32,33,34,36,37,38,40,41,42,43,44,45,46,47,49,50,51,52,53,54,56,57,58,59,60,61},
	{2,3,4,6,7,8,15,17,18,19,21,22,24,25,28,29,32,34,35,39,40,43,46,47,48,50,52,53,58,60,61},
	{2,3,4,6,7,8,15,17,18,19,21,22,24,25,28,29,32,34,35,39,40,43,46,47,48,50,52,53,58,60,61}];
